g3 3 1 0	# problem ex8_3_6
 105 71 1 0 71	# vars, constraints, objectives, ranges, eqns
 49 1	# nonlinear constraints, objectives
 0 0	# network constraints: nonlinear, linear
 100 2 2	# nonlinear vars in constraints, objectives, both
 0 0 0 1	# linear network variables; functions; arith, flags
 0 0 0 0 0	# discrete variables: binary, integer, nonlinear (b,c,o)
 524 2	# nonzeros in Jacobian, gradients
 0 0	# max name lengths: constraints, variables
 0 0 0 0 0	# common exprs: b,c,o,c1,o1
b
0 0 10
0 0 10
0 0 1000
0 0 1000
0 0 1000
0 0 1000
0 0 1000
0 0 10
0 0 10
0 0 10
0 0 10
0 0 10
0 0 10
0 0 10
0 0 10
0 0 10
0 0 10
0 0 10
0 0 10
0 0 10
0 0 10
0 0 10
0 0 10
0 0 10
0 0 10
0 0 10
0 0 10
0 0 1000
0 0 1000
0 0 1000
0 0 1000
0 0 1000
0 0 10
0 0 10
0 0 10
0 0 10
0 0 10
0 0 10
0 0 10
0 0 10
0 0 10
0 0 10
0 0 10
0 0 10
0 0 10
0 0 10
0 0 10
0 0 10
0 0 10
0 0 10
0 0 10
0 0 10
0 0 1000
0 0 1000
0 0 1000
0 0 1000
0 0 1000
0 0 1000
0 0 1000
0 0 1000
0 0 1000
0 0 1000
0 0 1000
0 0 1000
0 0 1000
0 0 1000
0 0 1000
0 0 1000
0 0 1000
0 0 1000
0 0 1000
0 0 1000
0 0 1000
0 0 1000
0 0 1000
0 0 1000
0 0 1000
0 0 1000
0 0 1000
0 0 1000
0 0 1000
0 0 1000
0 0 1000
0 0 10
0 0 10
0 0 10000
0 0 10000
0 0 10000
0 0 10000
0 0 10000
0 0 10000
0 0 10000
0 0 10000
0 0 10000
0 0 10000
0 0 10000
0 0 10000
0 0 10000
0 0 10000
0 0 10000
0 0 1000
0 0 1000
0 0 1000
0 0 1000
0 0 1000
x95
0 0.2
1 0.2
2 50
3 50
4 50
5 50
6 50
7 0.2
8 0.2
9 0.2
10 0.2
11 0.2
12 0.2
13 0.2
14 0.2
15 0.2
16 0.2
17 0.2
18 0.2
19 0.2
20 0.2
21 0.2
22 0.2
23 0.2
24 0.2
25 0.2
26 0.2
27 100
28 100
29 100
30 100
31 100
32 0.2
33 0.2
34 0.2
35 0.2
36 0.2
37 0.2
38 0.2
39 0.2
40 0.2
41 0.2
42 0.2
43 0.2
44 0.2
45 0.2
46 0.2
47 0.2
48 0.2
49 0.2
50 0.2
51 0.2
52 50
53 50
54 50
55 50
56 50
57 50
58 50
59 50
60 50
61 50
62 50
63 50
64 50
65 50
66 50
67 50
68 50
69 50
70 50
71 50
72 50
73 50
74 50
75 50
76 50
77 50
78 50
79 50
80 50
81 50
82 100
83 0.2
84 0.2
85 1
86 1
87 1
88 1
89 1
100 50
101 50
102 50
103 50
104 50
r
4 0
4 0
4 0
4 0
4 0
4 0
4 0
4 0
4 0
4 0
4 0
4 0
4 0
4 0
4 0
4 0
4 0
4 0
4 0
4 0
4 0
4 0
4 0
4 0
4 0
4 0
4 0
4 0
4 0
4 0
4 0
4 0
4 0
4 0
4 0
4 0
4 0
4 0
4 0
4 0
4 0
4 0
4 0
4 0
4 0
4 0
4 0
4 0
4 0
4 -100
4 0
4 0
4 0
4 0
4 0
4 0
4 0
4 0
4 0
4 0
4 0
4 0
4 0
4 0
4 0
4 0
4 0
4 0
4 0
4 0
4 0
C0
o16
o54
6
o16
o2
v7
v2
o2
v32
v52
o2
v36
v57
o2
v40
v62
o2
v44
v67
o2
v48
v72
C1
o16
o54
6
o16
o2
v8
v2
o2
v33
v52
o2
v37
v57
o2
v41
v62
o2
v45
v67
o2
v49
v72
C2
o16
o54
6
o16
o2
v9
v2
o2
v34
v52
o2
v38
v57
o2
v42
v62
o2
v46
v67
o2
v50
v72
C3
o16
o54
6
o16
o2
v10
v2
o2
v35
v52
o2
v39
v57
o2
v43
v62
o2
v47
v67
o2
v51
v72
C4
o16
o54
6
o16
o2
v11
v3
o2
v32
v53
o2
v36
v58
o2
v40
v63
o2
v44
v68
o2
v48
v73
C5
o16
o54
6
o16
o2
v12
v3
o2
v33
v53
o2
v37
v58
o2
v41
v63
o2
v45
v68
o2
v49
v73
C6
o16
o54
6
o16
o2
v13
v3
o2
v34
v53
o2
v38
v58
o2
v42
v63
o2
v46
v68
o2
v50
v73
C7
o16
o54
6
o16
o2
v14
v3
o2
v35
v53
o2
v39
v58
o2
v43
v63
o2
v47
v68
o2
v51
v73
C8
o16
o54
6
o16
o2
v15
v4
o2
v32
v54
o2
v36
v59
o2
v40
v64
o2
v44
v69
o2
v48
v74
C9
o16
o54
6
o16
o2
v16
v4
o2
v33
v54
o2
v37
v59
o2
v41
v64
o2
v45
v69
o2
v49
v74
C10
o16
o54
6
o16
o2
v17
v4
o2
v34
v54
o2
v38
v59
o2
v42
v64
o2
v46
v69
o2
v50
v74
C11
o16
o54
6
o16
o2
v18
v4
o2
v35
v54
o2
v39
v59
o2
v43
v64
o2
v47
v69
o2
v51
v74
C12
o16
o54
6
o16
o2
v19
v5
o2
v32
v55
o2
v36
v60
o2
v40
v65
o2
v44
v70
o2
v48
v75
C13
o16
o54
6
o16
o2
v20
v5
o2
v33
v55
o2
v37
v60
o2
v41
v65
o2
v45
v70
o2
v49
v75
C14
o16
o54
6
o16
o2
v21
v5
o2
v34
v55
o2
v38
v60
o2
v42
v65
o2
v46
v70
o2
v50
v75
C15
o16
o54
6
o16
o2
v22
v5
o2
v35
v55
o2
v39
v60
o2
v43
v65
o2
v47
v70
o2
v51
v75
C16
o16
o54
6
o16
o2
v23
v6
o2
v32
v56
o2
v36
v61
o2
v40
v66
o2
v44
v71
o2
v48
v76
C17
o16
o54
6
o16
o2
v24
v6
o2
v33
v56
o2
v37
v61
o2
v41
v66
o2
v45
v71
o2
v49
v76
C18
o16
o54
6
o16
o2
v25
v6
o2
v34
v56
o2
v38
v61
o2
v42
v66
o2
v46
v71
o2
v50
v76
C19
o16
o54
6
o16
o2
v26
v6
o2
v35
v56
o2
v39
v61
o2
v43
v66
o2
v47
v71
o2
v51
v76
C20
o54
3
o2
v32
v27
o16
o2
v7
v2
o16
o2
v85
o1
o1
n-0.025
v90
v91
C21
o1
o2
v33
v27
o2
v8
v2
C22
o54
3
o2
v34
v27
o16
o2
v9
v2
o16
o2
v85
v90
C23
o54
3
o2
v35
v27
o16
o2
v10
v2
o16
o2
v85
v91
C24
o54
3
o2
v36
v28
o16
o2
v11
v3
o16
o2
v86
o1
o1
n-0.025
v92
v93
C25
o1
o2
v37
v28
o2
v12
v3
C26
o54
3
o2
v38
v28
o16
o2
v13
v3
o16
o2
v86
v92
C27
o54
3
o2
v39
v28
o16
o2
v14
v3
o16
o2
v86
v93
C28
o54
3
o2
v40
v29
o16
o2
v15
v4
o16
o2
v87
o1
o1
n-0.025
v94
v95
C29
o1
o2
v41
v29
o2
v16
v4
C30
o54
3
o2
v42
v29
o16
o2
v17
v4
o16
o2
v87
v94
C31
o54
3
o2
v43
v29
o16
o2
v18
v4
o16
o2
v87
v95
C32
o54
3
o2
v44
v30
o16
o2
v19
v5
o16
o2
v88
o1
o1
n-0.025
v96
v97
C33
o1
o2
v45
v30
o2
v20
v5
C34
o54
3
o2
v46
v30
o16
o2
v21
v5
o16
o2
v88
v96
C35
o54
3
o2
v47
v30
o16
o2
v22
v5
o16
o2
v88
v97
C36
o54
3
o2
v48
v31
o16
o2
v23
v6
o16
o2
v89
o1
o1
n-0.025
v98
v99
C37
o1
o2
v49
v31
o2
v24
v6
C38
o54
3
o2
v50
v31
o16
o2
v25
v6
o16
o2
v89
v98
C39
o54
3
o2
v51
v31
o16
o2
v26
v6
o16
o2
v89
v99
C40
o2
o2
n-0.4
v32
v32
C41
o2
o2
n-0.4
v36
v36
C42
o2
o2
n-0.4
v40
v40
C43
o2
o2
n-0.4
v44
v44
C44
o2
o2
n-0.4
v48
v48
C45
o16
o54
6
o16
o2
v82
v0
o2
v77
v32
o2
v78
v36
o2
v79
v40
o2
v80
v44
o2
v81
v48
C46
o16
o54
6
o16
o2
v82
v83
o2
v77
v33
o2
v78
v37
o2
v79
v41
o2
v80
v45
o2
v81
v49
C47
o16
o54
6
o16
o2
v82
v1
o2
v77
v34
o2
v78
v38
o2
v79
v42
o2
v80
v46
o2
v81
v50
C48
o16
o54
6
o16
o2
v82
v84
o2
v77
v35
o2
v78
v39
o2
v79
v43
o2
v80
v47
o2
v81
v51
C49
n0
C50
n0
C51
n0
C52
n0
C53
n0
C54
n0
C55
n0
C56
n0
C57
n0
C58
n0
C59
n0
C60
n0
C61
n0
C62
n0
C63
n0
C64
n0
C65
n0
C66
n0
C67
n0
C68
n0
C69
n0
C70
n0
O0 0
o16
o3
v1
o1
n1
v0
k104
1
2
12
22
32
42
52
54
56
58
60
62
64
66
68
70
72
74
76
78
80
82
84
86
88
90
92
98
104
110
116
122
131
138
145
152
161
168
175
182
191
198
205
212
221
228
235
242
251
258
265
272
278
284
290
296
302
308
314
320
326
332
338
344
350
356
362
368
374
380
386
392
398
404
410
416
422
428
434
440
446
452
457
458
459
463
467
471
475
479
482
485
488
491
494
497
500
503
506
509
512
515
518
521
J0 13
2 0
7 0
32 0
36 0
40 0
44 0
48 0
52 0
57 0
62 0
67 0
72 0
100 -1
J1 12
2 0
8 0
33 0
37 0
41 0
45 0
49 0
52 0
57 0
62 0
67 0
72 0
J2 12
2 0
9 0
34 0
38 0
42 0
46 0
50 0
52 0
57 0
62 0
67 0
72 0
J3 12
2 0
10 0
35 0
39 0
43 0
47 0
51 0
52 0
57 0
62 0
67 0
72 0
J4 13
3 0
11 0
32 0
36 0
40 0
44 0
48 0
53 0
58 0
63 0
68 0
73 0
101 -1
J5 12
3 0
12 0
33 0
37 0
41 0
45 0
49 0
53 0
58 0
63 0
68 0
73 0
J6 12
3 0
13 0
34 0
38 0
42 0
46 0
50 0
53 0
58 0
63 0
68 0
73 0
J7 12
3 0
14 0
35 0
39 0
43 0
47 0
51 0
53 0
58 0
63 0
68 0
73 0
J8 13
4 0
15 0
32 0
36 0
40 0
44 0
48 0
54 0
59 0
64 0
69 0
74 0
102 -1
J9 12
4 0
16 0
33 0
37 0
41 0
45 0
49 0
54 0
59 0
64 0
69 0
74 0
J10 12
4 0
17 0
34 0
38 0
42 0
46 0
50 0
54 0
59 0
64 0
69 0
74 0
J11 12
4 0
18 0
35 0
39 0
43 0
47 0
51 0
54 0
59 0
64 0
69 0
74 0
J12 13
5 0
19 0
32 0
36 0
40 0
44 0
48 0
55 0
60 0
65 0
70 0
75 0
103 -1
J13 12
5 0
20 0
33 0
37 0
41 0
45 0
49 0
55 0
60 0
65 0
70 0
75 0
J14 12
5 0
21 0
34 0
38 0
42 0
46 0
50 0
55 0
60 0
65 0
70 0
75 0
J15 12
5 0
22 0
35 0
39 0
43 0
47 0
51 0
55 0
60 0
65 0
70 0
75 0
J16 13
6 0
23 0
32 0
36 0
40 0
44 0
48 0
56 0
61 0
66 0
71 0
76 0
104 -1
J17 12
6 0
24 0
33 0
37 0
41 0
45 0
49 0
56 0
61 0
66 0
71 0
76 0
J18 12
6 0
25 0
34 0
38 0
42 0
46 0
50 0
56 0
61 0
66 0
71 0
76 0
J19 12
6 0
26 0
35 0
39 0
43 0
47 0
51 0
56 0
61 0
66 0
71 0
76 0
J20 7
2 0
7 0
27 0
32 0
85 0
90 0
91 0
J21 5
2 0
8 0
27 0
33 0
85 -0.025
J22 6
2 0
9 0
27 0
34 0
85 0
90 0
J23 6
2 0
10 0
27 0
35 0
85 0
91 0
J24 7
3 0
11 0
28 0
36 0
86 0
92 0
93 0
J25 5
3 0
12 0
28 0
37 0
86 -0.025
J26 6
3 0
13 0
28 0
38 0
86 0
92 0
J27 6
3 0
14 0
28 0
39 0
86 0
93 0
J28 7
4 0
15 0
29 0
40 0
87 0
94 0
95 0
J29 5
4 0
16 0
29 0
41 0
87 -0.025
J30 6
4 0
17 0
29 0
42 0
87 0
94 0
J31 6
4 0
18 0
29 0
43 0
87 0
95 0
J32 7
5 0
19 0
30 0
44 0
88 0
96 0
97 0
J33 5
5 0
20 0
30 0
45 0
88 -0.025
J34 6
5 0
21 0
30 0
46 0
88 0
96 0
J35 6
5 0
22 0
30 0
47 0
88 0
97 0
J36 7
6 0
23 0
31 0
48 0
89 0
98 0
99 0
J37 5
6 0
24 0
31 0
49 0
89 -0.025
J38 6
6 0
25 0
31 0
50 0
89 0
98 0
J39 6
6 0
26 0
31 0
51 0
89 0
99 0
J40 2
32 0
91 1
J41 2
36 0
93 1
J42 2
40 0
95 1
J43 2
44 0
97 1
J44 2
48 0
99 1
J45 12
0 0
32 0
36 0
40 0
44 0
48 0
77 0
78 0
79 0
80 0
81 0
82 0
J46 12
33 0
37 0
41 0
45 0
49 0
77 0
78 0
79 0
80 0
81 0
82 0
83 0
J47 12
1 0
34 0
38 0
42 0
46 0
50 0
77 0
78 0
79 0
80 0
81 0
82 0
J48 12
35 0
39 0
43 0
47 0
51 0
77 0
78 0
79 0
80 0
81 0
82 0
84 0
J49 5
100 -1
101 -1
102 -1
103 -1
104 -1
J50 7
2 1
52 -1
57 -1
62 -1
67 -1
72 -1
100 -1
J51 7
3 1
53 -1
58 -1
63 -1
68 -1
73 -1
101 -1
J52 7
4 1
54 -1
59 -1
64 -1
69 -1
74 -1
102 -1
J53 7
5 1
55 -1
60 -1
65 -1
70 -1
75 -1
103 -1
J54 7
6 1
56 -1
61 -1
66 -1
71 -1
76 -1
104 -1
J55 2
2 -1
27 1
J56 2
3 -1
28 1
J57 2
4 -1
29 1
J58 2
5 -1
30 1
J59 2
6 -1
31 1
J60 2
32 -0.2
90 1
J61 2
36 -0.2
92 1
J62 2
40 -0.2
94 1
J63 2
44 -0.2
96 1
J64 2
48 -0.2
98 1
J65 7
27 1
52 -1
53 -1
54 -1
55 -1
56 -1
77 -1
J66 7
28 1
57 -1
58 -1
59 -1
60 -1
61 -1
78 -1
J67 7
29 1
62 -1
63 -1
64 -1
65 -1
66 -1
79 -1
J68 7
30 1
67 -1
68 -1
69 -1
70 -1
71 -1
80 -1
J69 7
31 1
72 -1
73 -1
74 -1
75 -1
76 -1
81 -1
J70 6
77 -1
78 -1
79 -1
80 -1
81 -1
82 1
G0 2
0 0
1 0
